benchmarks_vrp/CMT2/no_cluster/CMT2_3.vrp
NAME: CMT2_3
TYPE: CVRP
COMMENT: 835.26 - Cluster Nr.3
DIMENSION: 7
CAPACITY: 140
EDGE_WEIGHT_TYPE: EUC_2D
NODE_COORD_TYPE: TWOD_COORDS
NODE_COORD_SECTION: 
2 43 26
1 40 40
3 45 35
4 36 26
5 38 33
6 40 37
7 33 34
DEPOT_SECTION: 
1
-1
DEMAND_SECTION: 
6 20
7 19
2 22
5 10
4 26
1 0
3 30
EOF
