benchmarks_vrp/CMT2/no_cluster/CMT2_3.tour
NAME: CMT2_3 solution
TYPE: TOUR
TOUR_SECTION:
1 3 2 4 7 5 6 -1
-1
EOF